
Gurobi 9.1.2 (win64) logging started Tue Dec  7 13:40:58 2021

Gurobi Optimizer version 9.1.2 build v9.1.2rc0 (win64)
Thread count: 8 physical cores, 8 logical processors, using up to 8 threads
Optimize a model with 1 rows, 48 columns and 47 nonzeros
Model fingerprint: 0x01630ef8
Variable types: 1 continuous, 47 integer (47 binary)
Coefficient statistics:
  Matrix range     [1e+00, 1e+01]
  Objective range  [1e+00, 1e+00]
  Bounds range     [4e+01, 4e+01]
  RHS range        [1e+01, 1e+01]
Presolve time: 0.00s
Presolved: 1 rows, 48 columns, 47 nonzeros
Variable types: 1 continuous, 47 integer (47 binary)

Root simplex log...

Iteration    Objective       Primal Inf.    Dual Inf.      Time
       0   -4.1135368e+01   2.298343e-01   0.000000e+00     14s
       6   -4.1114513e+01   0.000000e+00   0.000000e+00     14s

Root relaxation: objective -4.111451e+01, 6 iterations, 0.00 seconds

    Nodes    |    Current Node    |     Objective Bounds      |     Work
 Expl Unexpl |  Obj  Depth IntInf | Incumbent    BestBd   Gap | It/Node Time

     0     0  -41.11451    0    1          -  -41.11451      -     -   14s
H    0     0                       0.4022958  -41.11451      -     -   14s
H    0     0                       0.3113574  -41.11451      -     -   15s
H    0     0                       0.3113574  -41.11451      -     -   15s
     0     0  -31.45818    0    5    0.31136  -31.45818      -     -   15s
H    0     0                       0.1055743  -31.45818      -     -   16s
H    0     0                       0.0607635  -31.45818      -     -   16s
H    0     0                       0.0281998  -31.45818      -     -   16s
     0     0  -24.36235    0    8    0.02820  -24.36235      -     -   16s
     0     0  -21.63174    0   10    0.02820  -21.63174      -     -   17s
     0     0  -20.78898    0   10    0.02820  -20.78898      -     -   18s
     0     0  -19.50555    0   11    0.02820  -19.50555      -     -   18s
     0     0  -19.44105    0   11    0.02820  -19.44105      -     -   18s
     0     0  -19.25985    0   10    0.02820  -19.25985      -     -   18s
     0     0  -19.02291    0   10    0.02820  -19.02291      -     -   18s
     0     0  -18.99963    0   10    0.02820  -18.99963      -     -   18s
     0     0  -18.75857    0   10    0.02820  -18.75857      -     -   18s
     0     0  -18.67855    0   11    0.02820  -18.67855      -     -   18s
     0     0  -18.66192    0   11    0.02820  -18.66192      -     -   18s
     0     0  -18.31488    0   10    0.02820  -18.31488      -     -   18s
     0     0  -18.22757    0   10    0.02820  -18.22757      -     -   18s
     0     0  -18.22757    0   10    0.02820  -18.22757      -     -   18s
     0     2  -18.22757    0   10    0.02820  -18.22757      -     -   18s

Cutting planes:
  Cover: 1
  MIR: 14
  Relax-and-lift: 1
  Lazy constraints: 37

Explored 122 nodes (525 simplex iterations) in 18.78 seconds
Thread count was 8 (of 8 available processors)

Solution count 5: 0.0281998 0.0607635 0.105574 ... 0.402296

Optimal solution found (tolerance 1.00e-04)
Best objective 2.819975582130e-02, best bound 2.819975582130e-02, gap 0.0000%

User-callback calls 457, time in user-callback 22.58 sec
